(set-logic ALL)
(declare-fun var0 () String)
(assert (str.in_re var0 (re.++ (re.union (re.+ (str.to_re "000")) (re.+ (str.to_re "11"))) (re.++ (re.* (re.union (str.to_re "2") (str.to_re "33"))) (re.++ (re.* (re.+ (str.to_re "4"))) (re.++ (re.* (re.* (str.to_re "55"))) (re.++ (re.union (re.union (str.to_re "666") (str.to_re "77")) (re.union (str.to_re "88") (str.to_re "99"))) (re.++ (re.* (re.* (str.to_re "a"))) (re.++ (re.union (re.union (str.to_re "bbb") (str.to_re "cc")) (re.union (str.to_re "ddd") (str.to_re "e"))) (re.++ (re.union (re.union (str.to_re "fff") (str.to_re "gg")) (re.union (str.to_re "hh") (str.to_re "ii"))) (re.++ (re.* (re.+ (str.to_re "jjj"))) (re.++ (re.+ (re.union (str.to_re "k") (str.to_re "ll"))) (re.++ (re.union (re.+ (str.to_re "mm")) (re.+ (str.to_re "n"))) (re.++ (re.union (re.union (str.to_re "o") (str.to_re "pp")) (re.union (str.to_re "qq") (str.to_re "rr"))) (re.++ (re.+ (re.* (str.to_re "s"))) (re.++ (re.union (re.* (str.to_re "t")) (re.* (str.to_re "u"))) (re.++ (re.+ (re.+ (str.to_re "vv"))) (re.++ (re.union (re.union (str.to_re "www") (str.to_re "x")) (re.union (str.to_re "yyy") (str.to_re "z"))) (re.++ (re.* (re.* (str.to_re "AAA"))) (re.++ (re.* (re.union (str.to_re "BB") (str.to_re "CCC"))) (re.++ (re.+ (re.union (str.to_re "DDD") (str.to_re "EE"))) (re.++ (re.+ (re.* (str.to_re "FF"))) (re.++ (re.+ (re.union (str.to_re "GGG") (str.to_re "HHH"))) (re.++ (re.* (re.+ (str.to_re "I"))) (re.++ (re.+ (re.* (str.to_re "JJ"))) (re.++ (re.union (re.union (str.to_re "KK") (str.to_re "LLL")) (re.union (str.to_re "MM") (str.to_re "NN"))) (re.++ (re.union (re.union (str.to_re "OOO") (str.to_re "P")) (re.union (str.to_re "QQQ") (str.to_re "RR"))) (re.++ (re.union (re.+ (str.to_re "SS")) (re.+ (str.to_re "T"))) (re.++ (re.union (re.* (str.to_re "UUU")) (re.* (str.to_re "V"))) (re.++ (re.+ (re.* (str.to_re "W"))) (re.++ (re.+ (re.union (str.to_re "XXX") (str.to_re "YYY"))) (re.++ (re.* (re.+ (str.to_re "ZZZ"))) (re.++ (re.union (re.union (str.to_re "!") (str.to_re """")) (re.union (str.to_re "##") (str.to_re "$$"))) (re.++ (re.* (re.union (str.to_re "%%") (str.to_re "&"))) (re.++ (re.* (re.+ (str.to_re "''"))) (re.++ (re.union (re.+ (str.to_re "(")) (re.+ (str.to_re "))"))) (re.++ (re.+ (re.union (str.to_re "*") (str.to_re "+"))) (re.++ (re.+ (re.* (str.to_re ","))) (re.++ (re.union (re.+ (str.to_re "--")) (re.+ (str.to_re ".."))) (re.++ (re.+ (re.+ (str.to_re "///"))) (re.++ (re.+ (re.* (str.to_re ":::"))) (re.++ (re.+ (re.+ (str.to_re ";;"))) (re.++ (re.+ (re.* (str.to_re "<"))) (re.++ (re.+ (re.+ (str.to_re "=="))) (re.++ (re.union (re.union (str.to_re ">") (str.to_re "???")) (re.union (str.to_re "@@") (str.to_re "[["))) (re.++ (re.+ (re.+ (str.to_re "\\"))) (re.++ (re.union (re.+ (str.to_re "]]]")) (re.+ (str.to_re "^"))) (re.++ (re.union (re.* (str.to_re "___")) (re.* (str.to_re "```"))) (re.++ (re.+ (re.* (str.to_re "{{{"))) (re.++ (re.+ (re.* (str.to_re "|"))) (re.++ (re.+ (re.union (str.to_re "}}") (str.to_re "~"))) (re.++ (re.union (re.* (str.to_re "00")) (re.* (str.to_re "11"))) (re.++ (re.* (re.union (str.to_re "2") (str.to_re "333"))) (re.++ (re.union (re.union (str.to_re "4") (str.to_re "555")) (re.union (str.to_re "666") (str.to_re "7"))) (re.++ (re.* (re.+ (str.to_re "888"))) (re.++ (re.* (re.+ (str.to_re "99"))) (re.++ (re.union (re.union (str.to_re "aa") (str.to_re "bbb")) (re.union (str.to_re "ccc") (str.to_re "dd"))) (re.++ (re.* (re.+ (str.to_re "eee"))) (re.++ (re.+ (re.union (str.to_re "fff") (str.to_re "gg"))) (re.++ (re.+ (re.+ (str.to_re "hh"))) (re.++ (re.+ (re.union (str.to_re "i") (str.to_re "jjj"))) (re.++ (re.* (re.* (str.to_re "kkk"))) (re.++ (re.+ (re.+ (str.to_re "l"))) (re.++ (re.union (re.union (str.to_re "mm") (str.to_re "nn")) (re.union (str.to_re "oo") (str.to_re "p"))) (re.++ (re.* (re.+ (str.to_re "qqq"))) (re.++ (re.+ (re.+ (str.to_re "rr"))) (re.++ (re.* (re.+ (str.to_re "ss"))) (re.++ (re.* (re.union (str.to_re "ttt") (str.to_re "uuu"))) (re.++ (re.union (re.+ (str.to_re "v")) (re.+ (str.to_re "ww"))) (re.++ (re.* (re.+ (str.to_re "x"))) (re.++ (re.+ (re.* (str.to_re "yyy"))) (re.++ (re.* (re.union (str.to_re "z") (str.to_re "AAA"))) (re.union (re.union (str.to_re "BBB") (str.to_re "CCC")) (re.union (str.to_re "D") (str.to_re "E")))))))))))))))))))))))))))))))))))))))))))))))))))))))))))))))))))))))))))
(check-sat)